20
1 0 155
2 0 161
2 1 247
3 0 259
3 1 40
3 2 54
4 0 263
4 1 227
4 2 247
4 3 244
5 0 251
5 1 76
5 2 312
5 3 31
5 4 213
6 0 226
6 1 318
6 2 147
6 3 15
6 4 236
6 5 149
7 0 69
7 1 90
7 2 166
7 3 108
7 4 149
7 5 225
7 6 160
8 0 112
8 1 115
8 2 260
8 3 259
8 4 224
8 5 313
8 6 201
8 7 286
9 0 225
9 1 298
9 2 210
9 3 52
9 4 169
9 5 21
9 6 73
9 7 211
9 8 103
10 0 288
10 1 30
10 2 6
10 3 118
10 4 233
10 5 174
10 6 73
10 7 6
10 8 164
10 9 153
11 0 313
11 1 183
11 2 297
11 3 42
11 4 197
11 5 116
11 6 89
11 7 145
11 8 306
11 9 217
11 10 32
12 0 85
12 1 156
12 2 108
12 3 208
12 4 242
12 5 233
12 6 314
12 7 212
12 8 298
12 9 250
12 10 141
12 11 315
13 0 12
13 1 98
13 2 243
13 3 11
13 4 41
13 5 154
13 6 218
13 7 66
13 8 81
13 9 223
13 10 225
13 11 191
13 12 307
14 0 316
14 1 9
14 2 234
14 3 29
14 4 167
14 5 315
14 6 56
14 7 12
14 8 193
14 9 245
14 10 42
14 11 310
14 12 2
14 13 173
15 0 163
15 1 218
15 2 203
15 3 95
15 4 4
15 5 21
15 6 256
15 7 319
15 8 64
15 9 130
15 10 193
15 11 271
15 12 211
15 13 292
15 14 68
16 0 257
16 1 206
16 2 80
16 3 23
16 4 196
16 5 287
16 6 7
16 7 85
16 8 1
16 9 148
16 10 111
16 11 191
16 12 264
16 13 228
16 14 29
16 15 44
17 0 72
17 1 295
17 2 111
17 3 84
17 4 78
17 5 28
17 6 75
17 7 144
17 8 98
17 9 267
17 10 36
17 11 114
17 12 185
17 13 191
17 14 248
17 15 302
17 16 41
18 0 144
18 1 73
18 2 211
18 3 108
18 4 72
18 5 30
18 6 315
18 7 30
18 8 267
18 9 254
18 10 261
18 11 187
18 12 296
18 13 2
18 14 151
18 15 262
18 16 79
18 17 16
19 0 117
19 1 49
19 2 137
19 3 72
19 4 183
19 5 149
19 6 316
19 7 83
19 8 270
19 9 241
19 10 249
19 11 108
19 12 266
19 13 87
19 14 78
19 15 139
19 16 168
19 17 169
19 18 35
